num_bands         =   8
num_wann          =   8
exclude_bands     =   9-24

#dis_win_min       = -20.0d0
#dis_win_max       = 70.0d0
#dis_froz_min      = -20.0d0
#dis_froz_max      =  15.0d0
#dis_num_iter      =  500

num_iter          = 0
#dis_mix_ratio = 1.0

begin projections
C: s,p
end projections

#wannier_plot = true
wannier_plot_list = 1 2 3 4 5 6 7 8
wannier_plot_supercell = 3 3 3

#write_xyz=.true.
#write_hr=.true.
write_u_matrices=.true.
#write_rmn=.true.

#kpath = false
#kpath_task = bands
#kpath_bands_colour = spin
#kpath_num_points=500
#restart = plot
#bands_plot = true
bands_num_points = 70
bands_plot_format = gnuplot
begin kpoint_path
G 0	0	0	X 0.5	0	0.5
X 0.5	0	0.5	 W 0.5	0.25	0.75
W 0.5	0.25	0.75	K 0.375	0.375	0.75
K 0.375	0.375	0.75	 G 0	0	0	 
G 0	0	0	L  0.5	0.5	0.5	 
L 0.5	0.5	0.5	U 0.625	0.25	0.625	
U 0.625	0.25	 0.625	W  0.5	0.5	0.5	 
W 0.5	0.5	0.5	L 0.5	0	0.5	
end kpoint_path

begin unit_cell_cart
     2.5269137     0.0000000     0.0000000
     1.2634569     2.1883715     0.0000000
     1.2634569     0.7294572     2.0632164
end unit_cell_cart

begin atoms_cart
C        3.7903706     2.1883715     1.5474123
C        2.5269137     1.4589143     1.0316082
end atoms_cart

mp_grid =    18    18    18

begin kpoints
      0.000000000000      0.000000000000      0.000000000000
      0.055555555556     -0.000000000000     -0.000000000000
      0.111111111111     -0.000000000000     -0.000000000000
      0.166666666667     -0.000000000000     -0.000000000000
      0.222222222222      0.000000000000      0.000000000000
      0.277777777778      0.000000000000     -0.000000000000
      0.333333333333     -0.000000000000     -0.000000000000
      0.388888888889     -0.000000000000     -0.000000000000
      0.444444444444      0.000000000000      0.000000000000
      0.500000000000     -0.000000000000     -0.000000000000
      0.055555555556      0.055555555556     -0.000000000000
      0.111111111111      0.055555555556     -0.000000000000
      0.166666666667      0.055555555556     -0.000000000000
      0.222222222222      0.055555555556      0.000000000000
      0.277777777778      0.055555555556      0.000000000000
      0.333333333333      0.055555555556     -0.000000000000
      0.388888888889      0.055555555556      0.000000000000
      0.444444444444      0.055555555556      0.000000000000
      0.500000000000      0.055555555556     -0.000000000000
     -0.444444444444      0.055555555556      0.000000000000
     -0.388888888889      0.055555555556      0.000000000000
     -0.333333333333      0.055555555556      0.000000000000
     -0.277777777778      0.055555555556      0.000000000000
     -0.222222222222      0.055555555556      0.000000000000
     -0.166666666667      0.055555555556      0.000000000000
     -0.111111111111      0.055555555556      0.000000000000
     -0.055555555556      0.055555555556      0.000000000000
      0.111111111111      0.111111111111     -0.000000000000
      0.166666666667      0.111111111111      0.000000000000
      0.222222222222      0.111111111111      0.000000000000
      0.277777777778      0.111111111111     -0.000000000000
      0.333333333333      0.111111111111     -0.000000000000
      0.388888888889      0.111111111111     -0.000000000000
      0.444444444444      0.111111111111      0.000000000000
      0.500000000000      0.111111111111     -0.000000000000
     -0.444444444444      0.111111111111      0.000000000000
     -0.388888888889      0.111111111111      0.000000000000
     -0.333333333333      0.111111111111      0.000000000000
     -0.277777777778      0.111111111111      0.000000000000
     -0.222222222222      0.111111111111     -0.000000000000
     -0.166666666667      0.111111111111     -0.000000000000
     -0.111111111111      0.111111111111      0.000000000000
      0.166666666667      0.166666666667     -0.000000000000
      0.222222222222      0.166666666667      0.000000000000
      0.277777777778      0.166666666667      0.000000000000
      0.333333333333      0.166666666667     -0.000000000000
      0.388888888889      0.166666666667     -0.000000000000
      0.444444444444      0.166666666667      0.000000000000
      0.500000000000      0.166666666667     -0.000000000000
     -0.444444444444      0.166666666667     -0.000000000000
     -0.388888888889      0.166666666667      0.000000000000
     -0.333333333333      0.166666666667      0.000000000000
     -0.277777777778      0.166666666667      0.000000000000
     -0.222222222222      0.166666666667     -0.000000000000
     -0.166666666667      0.166666666667      0.000000000000
      0.222222222222      0.222222222222      0.000000000000
      0.277777777778      0.222222222222     -0.000000000000
      0.333333333333      0.222222222222     -0.000000000000
      0.388888888889      0.222222222222     -0.000000000000
      0.444444444444      0.222222222222      0.000000000000
      0.500000000000      0.222222222222     -0.000000000000
     -0.444444444444      0.222222222222     -0.000000000000
     -0.388888888889      0.222222222222      0.000000000000
     -0.333333333333      0.222222222222      0.000000000000
     -0.277777777778      0.222222222222     -0.000000000000
     -0.222222222222      0.222222222222     -0.000000000000
      0.277777777778      0.277777777778     -0.000000000000
      0.333333333333      0.277777777778     -0.000000000000
      0.388888888889      0.277777777778     -0.000000000000
      0.444444444444      0.277777777778      0.000000000000
      0.500000000000      0.277777777778      0.000000000000
     -0.444444444444      0.277777777778     -0.000000000000
     -0.388888888889      0.277777777778      0.000000000000
     -0.333333333333      0.277777777778      0.000000000000
     -0.277777777778      0.277777777778      0.000000000000
      0.333333333333      0.333333333333     -0.000000000000
      0.388888888889      0.333333333333     -0.000000000000
      0.444444444444      0.333333333333      0.000000000000
      0.500000000000      0.333333333333     -0.000000000000
     -0.444444444444      0.333333333333     -0.000000000000
     -0.388888888889      0.333333333333      0.000000000000
     -0.333333333333      0.333333333333      0.000000000000
      0.388888888889      0.388888888889     -0.000000000000
      0.444444444444      0.388888888889      0.000000000000
      0.500000000000      0.388888888889     -0.000000000000
     -0.444444444444      0.388888888889     -0.000000000000
     -0.388888888889      0.388888888889      0.000000000000
      0.444444444444      0.444444444444      0.000000000000
      0.500000000000      0.444444444444     -0.000000000000
     -0.444444444444      0.444444444444     -0.000000000000
      0.500000000000      0.500000000000     -0.000000000000
      0.166666666667      0.111111111111      0.055555555556
      0.222222222222      0.111111111111      0.055555555556
      0.277777777778      0.111111111111      0.055555555556
      0.333333333333      0.111111111111      0.055555555556
      0.388888888889      0.111111111111      0.055555555556
      0.444444444444      0.111111111111      0.055555555556
      0.500000000000      0.111111111111      0.055555555556
     -0.444444444444      0.111111111111      0.055555555556
      0.222222222222      0.166666666667      0.055555555556
      0.277777777778      0.166666666667      0.055555555556
      0.333333333333      0.166666666667      0.055555555556
      0.388888888889      0.166666666667      0.055555555556
      0.444444444444      0.166666666667      0.055555555556
      0.500000000000      0.166666666667      0.055555555556
     -0.444444444444      0.166666666667      0.055555555556
     -0.388888888889      0.166666666667      0.055555555556
     -0.333333333333      0.166666666667      0.055555555556
     -0.277777777778      0.166666666667      0.055555555556
     -0.222222222222      0.166666666667      0.055555555556
     -0.166666666667      0.166666666667      0.055555555556
     -0.111111111111      0.166666666667      0.055555555556
      0.277777777778      0.222222222222      0.055555555556
      0.333333333333      0.222222222222      0.055555555556
      0.388888888889      0.222222222222      0.055555555556
      0.444444444444      0.222222222222      0.055555555556
      0.500000000000      0.222222222222      0.055555555556
     -0.444444444444      0.222222222222      0.055555555556
     -0.388888888889      0.222222222222      0.055555555556
     -0.333333333333      0.222222222222      0.055555555556
     -0.277777777778      0.222222222222      0.055555555556
     -0.222222222222      0.222222222222      0.055555555556
     -0.166666666667      0.222222222222      0.055555555556
      0.333333333333      0.277777777778      0.055555555556
      0.388888888889      0.277777777778      0.055555555556
      0.444444444444      0.277777777778      0.055555555556
      0.500000000000      0.277777777778      0.055555555556
     -0.444444444444      0.277777777778      0.055555555556
     -0.388888888889      0.277777777778      0.055555555556
     -0.333333333333      0.277777777778      0.055555555556
     -0.277777777778      0.277777777778      0.055555555556
     -0.222222222222      0.277777777778      0.055555555556
      0.388888888889      0.333333333333      0.055555555556
      0.444444444444      0.333333333333      0.055555555556
      0.500000000000      0.333333333333      0.055555555556
     -0.444444444444      0.333333333333      0.055555555556
     -0.388888888889      0.333333333333      0.055555555556
     -0.333333333333      0.333333333333      0.055555555556
     -0.277777777778      0.333333333333      0.055555555556
      0.444444444444      0.388888888889      0.055555555556
      0.500000000000      0.388888888889      0.055555555556
     -0.444444444444      0.388888888889      0.055555555556
     -0.388888888889      0.388888888889      0.055555555556
     -0.333333333333      0.388888888889      0.055555555556
      0.500000000000      0.444444444444      0.055555555556
     -0.444444444444      0.444444444444      0.055555555556
     -0.388888888889      0.444444444444      0.055555555556
     -0.444444444444      0.500000000000      0.055555555556
      0.333333333333      0.222222222222      0.111111111111
      0.388888888889      0.222222222222      0.111111111111
      0.444444444444      0.222222222222      0.111111111111
      0.500000000000      0.222222222222      0.111111111111
     -0.444444444444      0.222222222222      0.111111111111
     -0.388888888889      0.222222222222      0.111111111111
      0.388888888889      0.277777777778      0.111111111111
      0.444444444444      0.277777777778      0.111111111111
      0.500000000000      0.277777777778      0.111111111111
     -0.444444444444      0.277777777778      0.111111111111
     -0.388888888889      0.277777777778      0.111111111111
     -0.333333333333      0.277777777778      0.111111111111
     -0.277777777778      0.277777777778      0.111111111111
     -0.222222222222      0.277777777778      0.111111111111
     -0.166666666667      0.277777777778      0.111111111111
      0.444444444444      0.333333333333      0.111111111111
      0.500000000000      0.333333333333      0.111111111111
     -0.444444444444      0.333333333333      0.111111111111
     -0.388888888889      0.333333333333      0.111111111111
     -0.333333333333      0.333333333333      0.111111111111
     -0.277777777778      0.333333333333      0.111111111111
     -0.222222222222      0.333333333333      0.111111111111
      0.500000000000      0.388888888889      0.111111111111
     -0.444444444444      0.388888888889      0.111111111111
     -0.388888888889      0.388888888889      0.111111111111
     -0.333333333333      0.388888888889      0.111111111111
     -0.277777777778      0.388888888889      0.111111111111
     -0.444444444444      0.444444444444      0.111111111111
     -0.388888888889      0.444444444444      0.111111111111
     -0.333333333333      0.444444444444      0.111111111111
     -0.388888888889      0.500000000000      0.111111111111
      0.500000000000      0.333333333333      0.166666666667
     -0.444444444444      0.333333333333      0.166666666667
     -0.388888888889      0.333333333333      0.166666666667
     -0.333333333333      0.333333333333      0.166666666667
     -0.444444444444      0.388888888889      0.166666666667
     -0.388888888889      0.388888888889      0.166666666667
     -0.333333333333      0.388888888889      0.166666666667
     -0.277777777778      0.388888888889      0.166666666667
     -0.222222222222      0.388888888889      0.166666666667
     -0.388888888889      0.444444444444      0.166666666667
     -0.333333333333      0.444444444444      0.166666666667
     -0.277777777778      0.444444444444      0.166666666667
     -0.333333333333      0.500000000000      0.166666666667
     -0.333333333333      0.444444444444      0.222222222222
     -0.277777777778      0.444444444444      0.222222222222
     -0.277777777778      0.500000000000      0.222222222222
     -0.000000000000      0.055555555556     -0.000000000000
     -0.000000000000     -0.000000000000      0.055555555556
     -0.055555555556     -0.055555555556     -0.055555555556
     -0.055555555556      0.000000000000      0.000000000000
      0.000000000000     -0.055555555556      0.000000000000
      0.000000000000      0.000000000000     -0.055555555556
      0.055555555556      0.055555555556      0.055555555556
     -0.000000000000      0.111111111111     -0.000000000000
     -0.000000000000     -0.000000000000      0.111111111111
     -0.111111111111     -0.111111111111     -0.111111111111
     -0.111111111111      0.000000000000      0.000000000000
      0.000000000000     -0.111111111111      0.000000000000
      0.000000000000      0.000000000000     -0.111111111111
      0.111111111111      0.111111111111      0.111111111111
     -0.000000000000      0.166666666667     -0.000000000000
     -0.000000000000     -0.000000000000      0.166666666667
     -0.166666666667     -0.166666666667     -0.166666666667
     -0.166666666667      0.000000000000      0.000000000000
      0.000000000000     -0.166666666667      0.000000000000
      0.000000000000      0.000000000000     -0.166666666667
      0.166666666667      0.166666666667      0.166666666667
      0.000000000000      0.222222222222      0.000000000000
      0.000000000000      0.000000000000      0.222222222222
     -0.222222222222     -0.222222222222     -0.222222222222
     -0.222222222222     -0.000000000000     -0.000000000000
     -0.000000000000     -0.222222222222     -0.000000000000
     -0.000000000000     -0.000000000000     -0.222222222222
      0.222222222222      0.222222222222      0.222222222222
     -0.000000000000      0.277777777778      0.000000000000
      0.000000000000     -0.000000000000      0.277777777778
     -0.277777777778     -0.277777777778     -0.277777777778
     -0.277777777778     -0.000000000000      0.000000000000
      0.000000000000     -0.277777777778     -0.000000000000
     -0.000000000000      0.000000000000     -0.277777777778
      0.277777777778      0.277777777778      0.277777777778
     -0.000000000000      0.333333333333     -0.000000000000
     -0.000000000000     -0.000000000000      0.333333333333
     -0.333333333333     -0.333333333333     -0.333333333333
     -0.333333333333      0.000000000000      0.000000000000
      0.000000000000     -0.333333333333      0.000000000000
      0.000000000000      0.000000000000     -0.333333333333
      0.333333333333      0.333333333333      0.333333333333
     -0.000000000000      0.388888888889     -0.000000000000
     -0.000000000000     -0.000000000000      0.388888888889
     -0.388888888889     -0.388888888889     -0.388888888889
     -0.388888888889      0.000000000000      0.000000000000
      0.000000000000     -0.388888888889      0.000000000000
      0.000000000000      0.000000000000     -0.388888888889
      0.388888888889      0.388888888889      0.388888888889
      0.000000000000      0.444444444444      0.000000000000
      0.000000000000      0.000000000000      0.444444444444
     -0.444444444444     -0.444444444444     -0.444444444444
     -0.444444444444     -0.000000000000     -0.000000000000
     -0.000000000000     -0.444444444444     -0.000000000000
     -0.000000000000     -0.000000000000     -0.444444444444
      0.444444444444      0.444444444444      0.444444444444
     -0.000000000000      0.500000000000     -0.000000000000
     -0.000000000000     -0.000000000000      0.500000000000
     -0.500000000000     -0.500000000000     -0.500000000000
     -0.000000000000      0.055555555556      0.055555555556
      0.055555555556     -0.000000000000      0.055555555556
     -0.055555555556     -0.055555555556      0.000000000000
     -0.055555555556     -0.000000000000     -0.055555555556
      0.000000000000     -0.055555555556     -0.055555555556
     -0.000000000000      0.111111111111      0.055555555556
      0.055555555556     -0.000000000000      0.111111111111
     -0.055555555556     -0.055555555556      0.055555555556
     -0.111111111111     -0.055555555556     -0.111111111111
      0.055555555556      0.111111111111      0.000000000000
      0.055555555556     -0.055555555556     -0.055555555556
     -0.111111111111     -0.111111111111     -0.055555555556
      0.000000000000      0.055555555556      0.111111111111
     -0.055555555556      0.055555555556     -0.055555555556
     -0.055555555556     -0.111111111111     -0.111111111111
      0.111111111111      0.000000000000      0.055555555556
     -0.111111111111     -0.055555555556      0.000000000000
      0.000000000000     -0.111111111111     -0.055555555556
     -0.055555555556      0.000000000000     -0.111111111111
      0.055555555556      0.055555555556     -0.055555555556
      0.111111111111      0.055555555556      0.111111111111
     -0.055555555556     -0.111111111111     -0.000000000000
     -0.055555555556      0.055555555556      0.055555555556
      0.111111111111      0.111111111111      0.055555555556
     -0.000000000000     -0.055555555556     -0.111111111111
      0.055555555556     -0.055555555556      0.055555555556
      0.055555555556      0.111111111111      0.111111111111
     -0.111111111111     -0.000000000000     -0.055555555556
     -0.000000000000      0.166666666667      0.055555555556
      0.055555555556     -0.000000000000      0.166666666667
     -0.055555555556     -0.055555555556      0.111111111111
     -0.166666666667     -0.111111111111     -0.166666666667
      0.055555555556      0.166666666667      0.000000000000
      0.111111111111     -0.055555555556     -0.055555555556
     -0.166666666667     -0.166666666667     -0.111111111111
      0.000000000000      0.055555555556      0.166666666667
     -0.055555555556      0.111111111111     -0.055555555556
     -0.111111111111     -0.166666666667     -0.166666666667
      0.166666666667      0.000000000000      0.055555555556
     -0.166666666667     -0.055555555556      0.000000000000
      0.000000000000     -0.166666666667     -0.055555555556
     -0.055555555556      0.000000000000     -0.166666666667
      0.055555555556      0.055555555556     -0.111111111111
      0.166666666667      0.111111111111      0.166666666667
     -0.055555555556     -0.166666666667     -0.000000000000
     -0.111111111111      0.055555555556      0.055555555556
      0.166666666667      0.166666666667      0.111111111111
     -0.000000000000     -0.055555555556     -0.166666666667
      0.055555555556     -0.111111111111      0.055555555556
      0.111111111111      0.166666666667      0.166666666667
     -0.166666666667     -0.000000000000     -0.055555555556
      0.000000000000      0.222222222222      0.055555555556
      0.055555555556      0.000000000000      0.222222222222
     -0.055555555556     -0.055555555556      0.166666666667
     -0.222222222222     -0.166666666667     -0.222222222222
      0.055555555556      0.222222222222     -0.000000000000
      0.166666666667     -0.055555555556     -0.055555555556
     -0.222222222222     -0.222222222222     -0.166666666667
     -0.000000000000      0.055555555556      0.222222222222
     -0.055555555556      0.166666666667     -0.055555555556
     -0.166666666667     -0.222222222222     -0.222222222222
      0.222222222222     -0.000000000000      0.055555555556
     -0.222222222222     -0.055555555556     -0.000000000000
     -0.000000000000     -0.222222222222     -0.055555555556
     -0.055555555556     -0.000000000000     -0.222222222222
      0.055555555556      0.055555555556     -0.166666666667
      0.222222222222      0.166666666667      0.222222222222
     -0.055555555556     -0.222222222222      0.000000000000
     -0.166666666667      0.055555555556      0.055555555556
      0.222222222222      0.222222222222      0.166666666667
      0.000000000000     -0.055555555556     -0.222222222222
      0.055555555556     -0.166666666667      0.055555555556
      0.166666666667      0.222222222222      0.222222222222
     -0.222222222222      0.000000000000     -0.055555555556
      0.000000000000      0.277777777778      0.055555555556
      0.055555555556      0.000000000000      0.277777777778
     -0.055555555556     -0.055555555556      0.222222222222
     -0.277777777778     -0.222222222222     -0.277777777778
      0.055555555556      0.277777777778      0.000000000000
      0.222222222222     -0.055555555556     -0.055555555556
     -0.277777777778     -0.277777777778     -0.222222222222
      0.000000000000      0.055555555556      0.277777777778
     -0.055555555556      0.222222222222     -0.055555555556
     -0.222222222222     -0.277777777778     -0.277777777778
      0.277777777778      0.000000000000      0.055555555556
     -0.277777777778     -0.055555555556      0.000000000000
      0.000000000000     -0.277777777778     -0.055555555556
     -0.055555555556      0.000000000000     -0.277777777778
      0.055555555556      0.055555555556     -0.222222222222
      0.277777777778      0.222222222222      0.277777777778
     -0.055555555556     -0.277777777778      0.000000000000
     -0.222222222222      0.055555555556      0.055555555556
      0.277777777778      0.277777777778      0.222222222222
      0.000000000000     -0.055555555556     -0.277777777778
      0.055555555556     -0.222222222222      0.055555555556
      0.222222222222      0.277777777778      0.277777777778
     -0.277777777778      0.000000000000     -0.055555555556
     -0.000000000000      0.333333333333      0.055555555556
      0.055555555556     -0.000000000000      0.333333333333
     -0.055555555556     -0.055555555556      0.277777777778
     -0.333333333333     -0.277777777778     -0.333333333333
      0.055555555556      0.333333333333      0.000000000000
      0.277777777778     -0.055555555556     -0.055555555556
     -0.333333333333     -0.333333333333     -0.277777777778
      0.000000000000      0.055555555556      0.333333333333
     -0.055555555556      0.277777777778     -0.055555555556
     -0.277777777778     -0.333333333333     -0.333333333333
      0.333333333333      0.000000000000      0.055555555556
     -0.333333333333     -0.055555555556      0.000000000000
      0.000000000000     -0.333333333333     -0.055555555556
     -0.055555555556      0.000000000000     -0.333333333333
      0.055555555556      0.055555555556     -0.277777777778
      0.333333333333      0.277777777778      0.333333333333
     -0.055555555556     -0.333333333333     -0.000000000000
     -0.277777777778      0.055555555556      0.055555555556
      0.333333333333      0.333333333333      0.277777777778
     -0.000000000000     -0.055555555556     -0.333333333333
      0.055555555556     -0.277777777778      0.055555555556
      0.277777777778      0.333333333333      0.333333333333
     -0.333333333333     -0.000000000000     -0.055555555556
      0.000000000000      0.388888888889      0.055555555556
      0.055555555556      0.000000000000      0.388888888889
     -0.055555555556     -0.055555555556      0.333333333333
     -0.388888888889     -0.333333333333     -0.388888888889
      0.055555555556      0.388888888889      0.000000000000
      0.333333333333     -0.055555555556     -0.055555555556
     -0.388888888889     -0.388888888889     -0.333333333333
      0.000000000000      0.055555555556      0.388888888889
     -0.055555555556      0.333333333333     -0.055555555556
     -0.333333333333     -0.388888888889     -0.388888888889
      0.388888888889      0.000000000000      0.055555555556
     -0.388888888889     -0.055555555556      0.000000000000
      0.000000000000     -0.388888888889     -0.055555555556
     -0.055555555556      0.000000000000     -0.388888888889
      0.055555555556      0.055555555556     -0.333333333333
      0.388888888889      0.333333333333      0.388888888889
     -0.055555555556     -0.388888888889      0.000000000000
     -0.333333333333      0.055555555556      0.055555555556
      0.388888888889      0.388888888889      0.333333333333
      0.000000000000     -0.055555555556     -0.388888888889
      0.055555555556     -0.333333333333      0.055555555556
      0.333333333333      0.388888888889      0.388888888889
     -0.388888888889      0.000000000000     -0.055555555556
      0.000000000000      0.444444444444      0.055555555556
      0.055555555556      0.000000000000      0.444444444444
     -0.055555555556     -0.055555555556      0.388888888889
     -0.444444444444     -0.388888888889     -0.444444444444
      0.055555555556      0.444444444444      0.000000000000
      0.388888888889     -0.055555555556     -0.055555555556
     -0.444444444444     -0.444444444444     -0.388888888889
      0.000000000000      0.055555555556      0.444444444444
     -0.055555555556      0.388888888889     -0.055555555556
     -0.388888888889     -0.444444444444     -0.444444444444
      0.444444444444      0.000000000000      0.055555555556
     -0.444444444444     -0.055555555556      0.000000000000
      0.000000000000     -0.444444444444     -0.055555555556
     -0.055555555556      0.000000000000     -0.444444444444
      0.055555555556      0.055555555556     -0.388888888889
      0.444444444444      0.388888888889      0.444444444444
     -0.055555555556     -0.444444444444      0.000000000000
     -0.388888888889      0.055555555556      0.055555555556
      0.444444444444      0.444444444444      0.388888888889
      0.000000000000     -0.055555555556     -0.444444444444
      0.055555555556     -0.388888888889      0.055555555556
      0.388888888889      0.444444444444      0.444444444444
     -0.444444444444      0.000000000000     -0.055555555556
     -0.000000000000      0.500000000000      0.055555555556
      0.055555555556     -0.000000000000      0.500000000000
     -0.055555555556     -0.055555555556      0.444444444444
     -0.500000000000     -0.444444444444     -0.500000000000
      0.055555555556      0.500000000000      0.000000000000
      0.444444444444     -0.055555555556     -0.055555555556
     -0.500000000000     -0.500000000000     -0.444444444444
      0.000000000000      0.055555555556      0.500000000000
     -0.055555555556      0.444444444444     -0.055555555556
     -0.444444444444     -0.500000000000     -0.500000000000
      0.500000000000      0.000000000000      0.055555555556
     -0.500000000000     -0.055555555556      0.000000000000
      0.000000000000     -0.500000000000     -0.055555555556
     -0.055555555556      0.000000000000     -0.500000000000
      0.055555555556      0.055555555556     -0.444444444444
      0.500000000000      0.444444444444      0.500000000000
     -0.055555555556     -0.500000000000     -0.000000000000
     -0.444444444444      0.055555555556      0.055555555556
      0.500000000000      0.500000000000      0.444444444444
     -0.000000000000     -0.055555555556     -0.500000000000
      0.055555555556     -0.444444444444      0.055555555556
      0.444444444444      0.500000000000      0.500000000000
     -0.500000000000     -0.000000000000     -0.055555555556
      0.000000000000     -0.444444444444      0.055555555556
      0.055555555556      0.000000000000     -0.444444444444
     -0.055555555556     -0.055555555556     -0.500000000000
      0.444444444444      0.500000000000      0.444444444444
      0.055555555556     -0.444444444444      0.000000000000
     -0.500000000000     -0.055555555556     -0.055555555556
      0.444444444444      0.444444444444      0.500000000000
      0.000000000000      0.055555555556     -0.444444444444
     -0.055555555556     -0.500000000000     -0.055555555556
      0.500000000000      0.444444444444      0.444444444444
     -0.444444444444      0.000000000000      0.055555555556
      0.444444444444     -0.055555555556      0.000000000000
      0.000000000000      0.444444444444     -0.055555555556
     -0.055555555556      0.000000000000      0.444444444444
      0.055555555556      0.055555555556      0.500000000000
     -0.444444444444     -0.500000000000     -0.444444444444
     -0.055555555556      0.444444444444      0.000000000000
      0.500000000000      0.055555555556      0.055555555556
     -0.444444444444     -0.444444444444     -0.500000000000
      0.000000000000     -0.055555555556      0.444444444444
      0.055555555556      0.500000000000      0.055555555556
     -0.500000000000     -0.444444444444     -0.444444444444
      0.444444444444      0.000000000000     -0.055555555556
      0.000000000000     -0.388888888889      0.055555555556
      0.055555555556      0.000000000000     -0.388888888889
     -0.055555555556     -0.055555555556     -0.444444444444
      0.388888888889      0.444444444444      0.388888888889
      0.055555555556     -0.388888888889     -0.000000000000