K-point
0
G
18     18      18
0      0      0

