C2                                      
   1.00000000000000     
     2.5269137280990810    0.0000000000000000    0.0000000000000000
     1.2634568640495405    2.1883714817339328    0.0000000000000011
     1.2634568640495405    0.7294571605446464    2.0632164193267482
   C 
     2
Direct
  0.7500000000000000  0.7500000000000000  0.7500000000000000
  0.5000000000000000  0.5000000000000000  0.5000000000000000
 
  0.00000000E+00  0.00000000E+00  0.00000000E+00
  0.00000000E+00  0.00000000E+00  0.00000000E+00
